20:52:01 | INFO    | Run started | run_id: MR_MV_WT_case3_P5_R3_eps9999 | log file: C:\Users\Asus\Documents\GitHub\logistics-model2\internal-logistics-model2\results\MR_MV_WT\case3\MR_MV_WT_case3_P5_R3_eps9999_2026_05_04_20_52.log
20:52:01 | INFO    | Products loaded | sheet=case3 | rows=10
20:52:01 | INFO    | Data loaded | |N|=26 |Nw|=25 |K|=3 |R|=3 |P|=5 | U=25
20:52:01 | INFO    | Big-M | time=491.0 precedence=480.0 wait=465.0 load_lb=20 load_ub=20
20:52:01 | INFO    | Set parameter Username
20:52:01 | INFO    | Set parameter LicenseID to value 2811848
20:52:01 | INFO    | Academic license - for non-commercial use only - expires 2027-04-22
20:52:01 | INFO    | Objective set | primary: min total_wait | tie-break weight on route_duration: 0.001
20:52:01 | INFO    | Constraint (3) added | route_duration <= 9999
20:52:01 | INFO    | Constraints (4)-(9) added | route structure
20:52:01 | INFO    | Constraints (10)-(12) added | product assignment
20:52:01 | INFO    | Constraints (13)-(15) added | route timing
20:52:01 | INFO    | Constraints (16) added | time consistency
20:52:01 | INFO    | Constraints (17)-(19) added | service times
20:52:01 | INFO    | Constraints (20)-(22) added | precedence, route closure, waiting
20:52:01 | INFO    | Constraints (23)-(27) added | load propagation
20:52:01 | INFO    | Constraints (28)-(32) added | MTZ and route ordering
20:52:01 | INFO    | Set parameter TimeLimit to value 600
20:52:01 | INFO    | Set parameter MIPGap to value 0.01
20:52:01 | INFO    | Set parameter Presolve to value 2
20:52:01 | INFO    | Set parameter LogFile to value "C:\Users\Asus\Documents\GitHub\logistics-model2\internal-logistics-model2\results\MR_MV_WT\case3\result_MR_MV_WT_case3_P5_R3_eps9999_2026_05_04_20_52.log"
20:52:01 | INFO    | Solver configured | TimeLimit=600s | MIPGap=0.01 | gurobi_log=C:\Users\Asus\Documents\GitHub\logistics-model2\internal-logistics-model2\results\MR_MV_WT\case3\result_MR_MV_WT_case3_P5_R3_eps9999_2026_05_04_20_52.log
20:52:01 | INFO    | Optimization starting...
20:52:01 | INFO    | Gurobi Optimizer version 12.0.0 build v12.0.0rc1 (win64 - Windows 10.0 (19045.2))
20:52:01 | INFO    | 
20:52:01 | INFO    | CPU model: 12th Gen Intel(R) Core(TM) i7-12650H, instruction set [SSE2|AVX|AVX2]
20:52:01 | INFO    | Thread count: 10 physical cores, 16 logical processors, using up to 16 threads
20:52:01 | INFO    | 
20:52:01 | INFO    | Non-default parameters:
20:52:01 | INFO    | TimeLimit  600
20:52:01 | INFO    | MIPGap  0.01
20:52:01 | INFO    | Presolve  2
20:52:01 | INFO    | 
20:52:01 | INFO    | Optimize a model with 24417 rows, 7277 columns and 122577 nonzeros
20:52:01 | INFO    | Model fingerprint: 0x3667a773
20:52:01 | INFO    | Variable types: 1157 continuous, 6120 integer (5895 binary)
20:52:01 | INFO    | Coefficient statistics:
20:52:01 | INFO    |   Matrix range     [1e+00, 5e+02]
20:52:01 | INFO    |   Objective range  [1e-03, 1e+00]
20:52:01 | INFO    |   Bounds range     [1e+00, 3e+01]
20:52:01 | INFO    |   RHS range        [1e+00, 1e+04]
20:52:01 | INFO    | Presolve removed 21990 rows and 6429 columns
20:52:01 | INFO    | Presolve time: 0.09s
20:52:01 | INFO    | Presolved: 2427 rows, 848 columns, 12864 nonzeros
20:52:01 | INFO    | Variable types: 281 continuous, 567 integer (504 binary)
20:52:01 | INFO    | Root relaxation presolve removed 39 rows and 0 columns
20:52:01 | INFO    | Root relaxation presolved: 2388 rows, 878 columns, 12688 nonzeros
20:52:01 | INFO    | 
20:52:01 | INFO    | 
20:52:01 | INFO    | Root relaxation: objective 0.000000e+00, 270 iterations, 0.02 seconds (0.03 work units)
20:52:02 | INFO    | 
20:52:02 | INFO    |     Nodes    |    Current Node    |     Objective Bounds      |     Work
20:52:02 | INFO    |  Expl Unexpl |  Obj  Depth IntInf | Incumbent    BestBd   Gap | It/Node Time
20:52:02 | INFO    | 
20:52:02 | INFO    |      0     0    0.00000    0   51          -    0.00000      -     -    0s
20:52:02 | INFO    | H    0     0                    52259.999000    0.00000   100%     -    0s
20:52:02 | INFO    | H    0     0                      49.1790000    0.00000   100%     -    0s
20:52:02 | INFO    |      0     0    0.00000    0   68   49.17900    0.00000   100%     -    0s
20:52:02 | INFO    | H    0     0                      48.2120000    0.00000   100%     -    0s
20:52:02 | INFO    | H    0     0                      48.1990000    0.00000   100%     -    0s
20:52:02 | INFO    |      0     0    0.00000    0   50   48.19900    0.00000   100%     -    0s
20:52:02 | INFO    |      0     0    3.00000    0   70   48.19900    3.00000  93.8%     -    0s
20:52:02 | INFO    |      0     0    3.00000    0   70   48.19900    3.00000  93.8%     -    0s
20:52:02 | INFO    |      0     0    3.00000    0   72   48.19900    3.00000  93.8%     -    0s
20:52:02 | INFO    |      0     0    3.00299    0   89   48.19900    3.00299  93.8%     -    0s
20:52:02 | INFO    |      0     0    4.00000    0   89   48.19900    4.00000  91.7%     -    0s
20:52:02 | INFO    |      0     0    4.00000    0   84   48.19900    4.00000  91.7%     -    0s
20:52:02 | INFO    |      0     0    6.05103    0   82   48.19900    6.05103  87.4%     -    0s
20:52:02 | INFO    |      0     0    6.05103    0   82   48.19900    6.05103  87.4%     -    0s
20:52:02 | INFO    |      0     0    6.80707    0   86   48.19900    6.80707  85.9%     -    0s
20:52:02 | INFO    |      0     0    7.02336    0   96   48.19900    7.02336  85.4%     -    0s
20:52:02 | INFO    |      0     0    7.03234    0  108   48.19900    7.03234  85.4%     -    0s
20:52:02 | INFO    |      0     0    7.03234    0  110   48.19900    7.03234  85.4%     -    0s
20:52:02 | INFO    |      0     0    7.03234    0  112   48.19900    7.03234  85.4%     -    0s
20:52:02 | INFO    |      0     0   10.50918    0   72   48.19900   10.50918  78.2%     -    0s
20:52:02 | INFO    |      0     0   12.00918    0   81   48.19900   12.00918  75.1%     -    0s
20:52:02 | INFO    | H    0     0                      45.1960000   12.00918  73.4%     -    0s
20:52:02 | INFO    |      0     0   15.00000    0  103   45.19600   15.00000  66.8%     -    0s
20:52:02 | INFO    |      0     0   15.00000    0   97   45.19600   15.00000  66.8%     -    0s
20:52:02 | INFO    |      0     0   15.00000    0  101   45.19600   15.00000  66.8%     -    0s
20:52:02 | INFO    |      0     0   15.00000    0   85   45.19600   15.00000  66.8%     -    0s
20:52:02 | INFO    | H    0     0                      45.1850000   15.00000  66.8%     -    0s
20:52:02 | INFO    |      0     0   15.00000    0   71   45.18500   15.00000  66.8%     -    0s
20:52:02 | INFO    |      0     0   15.00000    0   63   45.18500   15.00000  66.8%     -    0s
20:52:02 | INFO    |      0     0   15.00000    0   49   45.18500   15.00000  66.8%     -    0s
20:52:02 | INFO    |      0     0   15.00000    0   57   45.18500   15.00000  66.8%     -    0s
20:52:02 | INFO    | H    0     0                      45.1430000   15.00000  66.8%     -    0s
20:52:02 | INFO    | H    0     0                      45.1410000   15.00000  66.8%     -    1s
20:52:02 | INFO    |      0     0   15.00000    0   48   45.14100   15.00000  66.8%     -    1s
20:52:02 | INFO    |      0     0   15.00000    0   48   45.14100   15.00000  66.8%     -    1s
20:52:02 | INFO    |      0     0   15.00000    0   53   45.14100   15.00000  66.8%     -    1s
20:52:03 | INFO    | H    0     0                      43.1940000   15.00000  65.3%     -    1s
20:52:03 | INFO    | H    0     0                      43.1830000   15.00000  65.3%     -    1s
20:52:03 | INFO    |      0     0   15.00000    0   53   43.18300   15.00000  65.3%     -    1s
20:52:03 | INFO    |      0     0   15.00000    0   56   43.18300   15.00000  65.3%     -    1s
20:52:03 | INFO    | H    0     0                      42.1780000   15.00000  64.4%     -    1s
20:52:03 | INFO    |      0     0   15.00000    0   54   42.17800   15.00000  64.4%     -    1s
20:52:03 | INFO    |      0     2   15.00000    0   51   42.17800   15.00000  64.4%     -    1s
20:52:06 | INFO    |   9734   470   26.57200   10   29   42.17800   24.07139  42.9%  32.2    5s
20:52:07 | INFO    | 
20:52:07 | INFO    | Cutting planes:
20:52:07 | INFO    |   Learned: 68
20:52:07 | INFO    |   Gomory: 8
20:52:07 | INFO    |   Cover: 140
20:52:07 | INFO    |   Implied bound: 414
20:52:07 | INFO    |   Clique: 6
20:52:07 | INFO    |   MIR: 261
20:52:07 | INFO    |   StrongCG: 2
20:52:07 | INFO    |   Flow cover: 2
20:52:07 | INFO    |   Inf proof: 8
20:52:07 | INFO    |   Zero half: 30
20:52:07 | INFO    |   RLT: 75
20:52:07 | INFO    |   Relax-and-lift: 131
20:52:07 | INFO    |   BQP: 1
20:52:07 | INFO    | 
20:52:07 | INFO    | Explored 11810 nodes (380599 simplex iterations) in 5.39 seconds (6.79 work units)
20:52:07 | INFO    | Thread count was 16 (of 16 available processors)
20:52:07 | INFO    | 
20:52:07 | INFO    | Solution count 10: 42.178 43.183 43.194 ... 49.179
20:52:07 | INFO    | 
20:52:07 | INFO    | Optimal solution found (tolerance 1.00e-02)
20:52:07 | INFO    | Best objective 4.217800000000e+01, best bound 4.217800000000e+01, gap 0.0000%
20:52:07 | INFO    | Solution found | total_wait=42.00 | route_duration=178.00
20:52:07 | INFO    | Objective=42.18 | runtime=5.39s | MIP Gap=0.00%
20:52:07 | INFO    | Generating Excel output | C:\Users\Asus\Documents\GitHub\logistics-model2\internal-logistics-model2\results\MR_MV_WT\case3\result_MR_MV_WT_case3_P5_R3_eps9999_2026_05_04_20_52.xlsx
20:52:07 | INFO    | Excel output written | 12 sheets | C:\Users\Asus\Documents\GitHub\logistics-model2\internal-logistics-model2\results\MR_MV_WT\case3\result_MR_MV_WT_case3_P5_R3_eps9999_2026_05_04_20_52.xlsx
20:52:07 | INFO    | Master Pareto updated | 15 total rows | C:\Users\Asus\Documents\GitHub\logistics-model2\internal-logistics-model2\results\master_pareto.xlsx
20:52:07 | INFO    | Run complete | run_id=MR_MV_WT_case3_P5_R3_eps9999
